INPUT_PARAMETERS
suffix                abacus
ntype                 1
pseudo_dir            ./
orbital_dir           ./
nspin                 1
ecutwfc               100
scf_thr               1e-6
basis_type            lcao
calculation           scf

smearing_method       gaussian
smearing_sigma        0.01
