ATOMIC_SPECIES
Ni      58.6934 Ni_ONCV_PBE-1.0.upf
O       15.9990 O_ONCV_PBE-1.0.upf

NUMERICAL_ORBITAL
Ni_gga_8au_100Ry_2s2p1d.orb
O_gga_8au_100Ry_2s2p1d.orb

LATTICE_CONSTANT
1.8897261258369282

LATTICE_VECTORS
    4.1700000000     2.0850000000     2.0850000000
    2.0850000000     4.1700000000     2.0850000000
    2.0850000000     2.0850000000     4.1700000000

ATOMIC_POSITIONS
Direct

Ni
0
2
0.0  0.0  0.0 m 1 1 1 mag  2.0
0.5  0.5  0.5 m 1 1 1 mag -2.0


O
0
2
0.25  0.25  0.25 m 1 1 1 mag  0.0
0.75  0.75  0.75 m 1 1 1 mag  0.0

